Instance name: /mnt/c/Users/ORG/CLionProjects/uMV-FSTSP/Murray_Chu_2015_test_data/FSTSP/FSTSP_10_customer_problems/20140810T123437v12

drone speed: 0.6 miles/minute
uav non-eligible customer: 10 
Printing number of nodes: 11

Gurobi Optimizer version 11.0.0 build v11.0.0rc2 (linux64 - "Ubuntu 22.04.3 LTS")

CPU model: 13th Gen Intel(R) Core(TM) i5-13500, instruction set [SSE2|AVX|AVX2]
Thread count: 10 physical cores, 20 logical processors, using up to 20 threads

Optimize a model with 44485 rows, 1957 columns and 1837894 nonzeros
Model fingerprint: 0xd92b2bd8
Variable types: 11 continuous, 1946 integer (1814 binary)
Coefficient statistics:
  Matrix range     [4e-01, 2e+01]
  Objective range  [8e-01, 2e+01]
  Bounds range     [1e+00, 1e+00]
  RHS range        [1e+00, 9e+00]
Found heuristic solution: objective 174.3525321
Presolve removed 25876 rows and 801 columns
Presolve time: 2.29s
Presolved: 18609 rows, 1156 columns, 610289 nonzeros
Variable types: 9 continuous, 1147 integer (1147 binary)
Found heuristic solution: objective 161.2361113
Root relaxation presolved: 18609 rows, 1156 columns, 610289 nonzeros


Root relaxation: objective 4.981928e+01, 3719 iterations, 1.48 seconds (3.68 work units)

    Nodes    |    Current Node    |     Objective Bounds      |     Work
 Expl Unexpl |  Obj  Depth IntInf | Incumbent    BestBd   Gap | It/Node Time

     0     0   49.81928    0  166  161.23611   49.81928  69.1%     -    3s
H    0     0                     140.5579935   49.81928  64.6%     -    4s
H    0     0                     139.5619002   49.81928  64.3%     -    4s
H    0     0                     105.6982135   49.81928  52.9%     -    4s
H    0     0                      77.3778939   49.81928  35.6%     -    4s
H    0     0                      72.9215259   51.26067  29.7%     -    4s
     0     0   51.26067    0  186   72.92153   51.26067  29.7%     -    4s
H    0     0                      64.1830646   51.39578  19.9%     -    5s
     0     0   51.44023    0  177   64.18306   51.44023  19.9%     -    5s
     0     0   51.47005    0  179   64.18306   51.47005  19.8%     -    5s
     0     0   51.48193    0  176   64.18306   51.48193  19.8%     -    5s
     0     0   51.48198    0  175   64.18306   51.48198  19.8%     -    5s
H    0     0                      62.1053004   52.07346  16.2%     -    6s
     0     0   52.07346    0  198   62.10530   52.07346  16.2%     -    6s
H    0     0                      61.5913140   52.11876  15.4%     -    6s
     0     0   52.12528    0  197   61.59131   52.12528  15.4%     -    6s
     0     0   52.13264    0  213   61.59131   52.13264  15.4%     -    6s
     0     0   52.14305    0  198   61.59131   52.14305  15.3%     -    7s
     0     0   52.14306    0  201   61.59131   52.14306  15.3%     -    7s
     0     0   52.21987    0  228   61.59131   52.21987  15.2%     -    7s
     0     0   52.23664    0  230   61.59131   52.23664  15.2%     -    8s
     0     0   52.26855    0  220   61.59131   52.26855  15.1%     -    8s
     0     0   52.28545    0  227   61.59131   52.28545  15.1%     -    9s
     0     0   52.28708    0  230   61.59131   52.28708  15.1%     -    9s
     0     0   52.29312    0  225   61.59131   52.29312  15.1%     -   10s
     0     0   52.30013    0  226   61.59131   52.30013  15.1%     -   10s
     0     0   52.30013    0  237   61.59131   52.30013  15.1%     -   10s
H    0     0                      61.1280290   52.89114  13.5%     -   10s
H    0     0                      60.6140427   52.89114  12.7%     -   10s
     0     0   52.89114    0  236   60.61404   52.89114  12.7%     -   11s
     0     0   52.89114    0  243   60.61404   52.89114  12.7%     -   11s
     0     0   52.91742    0  239   60.61404   52.91742  12.7%     -   11s
H    0     0                      58.0082828   52.99837  8.64%     -   12s
H    0     0                      57.8492581   52.99837  8.39%     -   12s
     0     0   52.99837    0  232   57.84926   52.99837  8.39%     -   12s
H    0     0                      57.0011217   52.99837  7.02%     -   13s
H    0     0                      56.8492581   52.99837  6.77%     -   13s
     0     0   52.99837    0  164   56.84926   52.99837  6.77%     -   16s
     0     0   52.99837    0  185   56.84926   52.99837  6.77%     -   17s
     0     0   52.99837    0  198   56.84926   52.99837  6.77%     -   17s
     0     0   52.99837    0  197   56.84926   52.99837  6.77%     -   18s
     0     0   52.99837    0  224   56.84926   52.99837  6.77%     -   18s
     0     0   52.99837    0  226   56.84926   52.99837  6.77%     -   18s
     0     0   52.99837    0  228   56.84926   52.99837  6.77%     -   18s
     0     0   52.99837    0  229   56.84926   52.99837  6.77%     -   18s
     0     0   52.99837    0  221   56.84926   52.99837  6.77%     -   18s
     0     0   52.99837    0  220   56.84926   52.99837  6.77%     -   19s
     0     0   52.99837    0  237   56.84926   52.99837  6.77%     -   19s
     0     0   52.99837    0  231   56.84926   52.99837  6.77%     -   20s
     0     0   52.99837    0  238   56.84926   52.99837  6.77%     -   20s
     0     0   52.99837    0  240   56.84926   52.99837  6.77%     -   20s
     0     0   52.99837    0  249   56.84926   52.99837  6.77%     -   20s
     0     0   52.99837    0  229   56.84926   52.99837  6.77%     -   21s
     0     0   53.37744    0  252   56.84926   53.37744  6.11%     -   21s
     0     0   53.38547    0  255   56.84926   53.38547  6.09%     -   21s
     0     0   53.83061    0  250   56.84926   53.83061  5.31%     -   21s
     0     0   54.11441    0  242   56.84926   54.11441  4.81%     -   22s
     0     0   54.11441    0  244   56.84926   54.11441  4.81%     -   22s
     0     0   54.16907    0  241   56.84926   54.16907  4.71%     -   23s
     0     0   54.17491    0  241   56.84926   54.17491  4.70%     -   23s
     0     2   54.17491    0  239   56.84926   54.17491  4.70%     -   25s
    33    23   55.85022    5  109   56.84926   54.47454  4.18%   246   30s

Cutting planes:
  Gomory: 3
  Cover: 16
  Clique: 13
  MIR: 12
  StrongCG: 3
  GUB cover: 1
  Zero half: 4
  RLT: 79

Explored 134 nodes (26831 simplex iterations) in 34.08 seconds (55.67 work units)
Thread count was 20 (of 20 available processors)

Solution count 10: 56.8493 57.0011 57.8493 ... 72.9215

Optimal solution found (tolerance 1.00e-04)
Best objective 5.684925808067e+01, best bound 5.684925808067e+01, gap 0.0000%
Truck arcs: 
0 10 12.8383
4 8 1.94864
5 7 0.777831
6 5 0.955922
7 9 13.0501
8 6 5.60229
9 11 7.71706
10 4 8.38296
Theta:
Theta_1 = 1
Theta_2 = 1
Theta_3 = 1
Drone arcs:
0 2
1 9
2 10
3 5
5 1
10 3
Gamma:
gamma_1_5_7= 1
gamma_1_7_9= 1
gamma_2_0_10= 1
gamma_3_4_8= 1
gamma_3_6_5= 1
gamma_3_8_6= 1
gamma_3_10_4= 1
Sigma:
Sigma_1 = 0
Sigma_2 = 0.576143
Sigma_3 = 0
Sigma_4 = -0
Sigma_5 = 0
Sigma_6 = 0
Sigma_7 = 0
Sigma_8 = 0
Sigma_9 = 0
Sigma_10 = 0
Sigma_11 = 0
middle of 1 sortie are: 7 
middle of 2 sortie are: 
middle of 3 sortie are: 4 6 8 
Objective: 56.8493
Number of sorties: 3
